TCS_Benchmarks/redos_fix/corpus1_output_distinct_4008_4007_0_0.txt
(.*)(.*)
(.*)(<font face="arial,helvetica" size=2>(<[BI]>)?)(.*)